(set-logic QF_SLIA)
(declare-fun var0 () String)
(assert (not (str.in_re var0 (re.++ ((_ re.loop 3 999) (re.++ (re.union (str.to_re "*") (re.union (str.to_re "u") (re.union (str.to_re "0t'") (str.to_re "e")))) (re.++ (re.union (str.to_re "6@p") (re.union (str.to_re "5E") (re.union (str.to_re "R!") (str.to_re "l")))) (re.++ (re.union (str.to_re ";") (re.union (str.to_re "X6T") (re.union (str.to_re "(") (str.to_re "G_H")))) (re.union (str.to_re "9X:") (re.union (str.to_re "$h") (re.union (str.to_re "TXx") (str.to_re "y\\")))))))) (re.++ ((_ re.loop 1 121) (re.++ (re.union (str.to_re "kQ") (re.union (str.to_re "L") (re.union (str.to_re "Sv") (str.to_re "AR")))) (re.++ (re.union (str.to_re "{") (re.union (str.to_re "W") (re.union (str.to_re "Dn") (str.to_re "b")))) (re.++ (re.union (str.to_re "eH.") (re.union (str.to_re ";J#") (re.union (str.to_re "|") (str.to_re "C")))) (re.union (str.to_re ",") (re.union (str.to_re "NL") (re.union (str.to_re "uMT") (str.to_re "ggp")))))))) (re.++ ((_ re.loop 5 153) (re.++ (re.union (str.to_re "Y][") (re.union (str.to_re "^`>") (re.union (str.to_re "T") (str.to_re "Yi0")))) (re.++ (re.union (str.to_re "/)H") (re.union (str.to_re "!") (re.union (str.to_re "4g8") (str.to_re "L")))) (re.++ (re.union (str.to_re "E") (re.union (str.to_re "tk}") (re.union (str.to_re "\u0022") (str.to_re "!L.")))) (re.union (str.to_re "=]") (re.union (str.to_re "4~") (re.union (str.to_re "Ee") (str.to_re "VE")))))))) ((_ re.loop 9 795) (re.++ (re.union (str.to_re ".3'") (re.union (str.to_re "7:{") (re.union (str.to_re "]3)") (str.to_re "|NB")))) (re.++ (re.union (str.to_re "P") (re.union (str.to_re "8") (re.union (str.to_re "FE2") (str.to_re ".\u0022)")))) (re.++ (re.union (str.to_re "A!;") (re.union (str.to_re "jxG") (re.union (str.to_re "v$") (str.to_re "C")))) (re.union (str.to_re "1") (re.union (str.to_re "X") (re.union (str.to_re "V") (str.to_re "[t"))))))))))))))
(assert (not (str.in_re var0 (re.++ ((_ re.loop 11 862) (re.++ (re.union (str.to_re "P1$") (re.union (str.to_re "}Zb") (re.union (str.to_re "x]") (str.to_re "]s")))) (re.++ (re.union (str.to_re "E1") (re.union (str.to_re "\\") (re.union (str.to_re "_Z") (str.to_re "4$")))) (re.++ (re.union (str.to_re ")[") (re.union (str.to_re "Z59") (re.union (str.to_re "G") (str.to_re "js")))) (re.union (str.to_re "9\\") (re.union (str.to_re "<") (re.union (str.to_re "G9") (str.to_re "'")))))))) (re.++ ((_ re.loop 0 734) (re.++ (re.union (str.to_re "M6`") (re.union (str.to_re "t") (re.union (str.to_re "sK") (str.to_re "Rxv")))) (re.++ (re.union (str.to_re "H") (re.union (str.to_re "t") (re.union (str.to_re "$") (str.to_re "3")))) (re.++ (re.union (str.to_re "Tx") (re.union (str.to_re "?") (re.union (str.to_re "Cd4") (str.to_re "\\D@")))) (re.union (str.to_re "FC") (re.union (str.to_re "T@") (re.union (str.to_re "d") (str.to_re "f1")))))))) (re.++ ((_ re.loop 6 638) (re.++ (re.union (str.to_re ")OI") (re.union (str.to_re "%1") (re.union (str.to_re ">y") (str.to_re "]")))) (re.++ (re.union (str.to_re "r") (re.union (str.to_re "-") (re.union (str.to_re "Ya") (str.to_re "3")))) (re.++ (re.union (str.to_re "7Z") (re.union (str.to_re "U") (re.union (str.to_re "l") (str.to_re "8")))) (re.union (str.to_re "{x") (re.union (str.to_re "r%$") (re.union (str.to_re "<q3") (str.to_re "HAr")))))))) ((_ re.loop 4 947) (re.++ (re.union (str.to_re "bJ") (re.union (str.to_re "n\u0022") (re.union (str.to_re "V3d") (str.to_re "Uw\u0022")))) (re.++ (re.union (str.to_re "QbC") (re.union (str.to_re "U\\_") (re.union (str.to_re "P") (str.to_re "4")))) (re.++ (re.union (str.to_re "pET") (re.union (str.to_re "7") (re.union (str.to_re "cY") (str.to_re "csY")))) (re.union (str.to_re "3hS") (re.union (str.to_re "44)") (re.union (str.to_re "\\W") (str.to_re "d"))))))))))))))
(assert (not (str.in_re var0 (re.++ (re.* re.allchar) (re.++ (re.union (str.to_re "<") (re.union (str.to_re ">") (re.union (str.to_re "'") (re.union (str.to_re "\u0022") (str.to_re "&"))))) (re.* re.allchar))))))
(assert (<= 50 (str.len var0)))
(check-sat)
(get-model)
